p cnf 24 35
-1 11 0 
-4 11 0 
-20 1 0 
-4 21 0 
-14 1 8 0 
-19 1 6 0 
-1 19 0 
-2 23 0 
-17 1 7 0 
-15 2 0 
-9 16 0 
-16 6 9 0 
-8 24 0 
-2 15 0 
-18 3 0 
-10 22 0 
-6 12 0 
-8 14 0 
-22 2 10 0 
-11 1 4 0 
-1 17 0 
-1 14 0 
-1 20 0 
-12 6 9 0 
-2 22 0 
-24 8 0 
-21 4 0 
-5 13 0 
-6 16 0 
-6 19 0 
-3 18 0 
-9 12 0 
-23 2 0 
-7 17 0 
-13 5 0 
